% seed = 3299407

mint = 34;
% maxt = 106;

nActs = 22;
dur = [0,7,10,2,3,1,9,4,7,2,9,7,4,10,4,10,6,1,3,4,3,0];

nSkills = 4;
sreq = [| 0,0,0,0,
	| 1,3,0,0,
	| 1,0,1,0,
	| 0,1,0,3,
	| 0,0,1,2,
	| 3,0,2,0,
	| 0,2,2,0,
	| 0,3,0,3,
	| 0,0,3,1,
	| 2,0,0,2,
	| 1,3,0,0,
	| 1,0,3,0,
	| 1,3,0,0,
	| 3,0,2,0,
	| 2,0,0,2,
	| 1,0,0,3,
	| 3,0,0,1,
	| 2,3,0,0,
	| 0,0,1,1,
	| 0,0,2,2,
	| 3,0,1,0,
	| 0,0,0,0, |];

nResources = 13;
mastery = [| false,false,false,true,
	| false,true,false,true,
	| false,true,true,true,
	| false,false,false,true,
	| false,false,false,true,
	| true,false,false,true,
	| true,false,false,true,
	| true,false,true,true,
	| false,true,true,true,
	| true,true,false,true,
	| false,true,true,true,
	| false,false,false,true,
	| true,false,false,false, |];

nPrecs = 37;
pred = [1,1,1,2,2,2,3,3,4,4,4,5,5,5,6,6,7,7,8,8,9,10,11,11,12,13,14,14,15,16,17,17,18,18,19,20,21];
succ = [2,3,4,17,14,7,18,6,12,5,15,10,13,14,15,8,11,16,9,12,19,20,13,15,21,18,19,16,21,20,18,19,20,21,22,22,22];

nUnrels = 112;
unpred = [2,2,2,2,2,2,2,2,3,3,3,3,3,3,3,3,3,4,4,4,4,4,4,5,5,5,5,5,5,5,5,6,6,6,6,6,6,6,6,6,7,7,7,7,7,7,7,8,8,8,8,8,8,8,8,8,9,9,9,9,9,9,9,9,9,9,9,10,10,10,10,10,10,10,10,10,10,11,11,11,11,11,12,12,12,12,12,12,12,12,13,13,13,13,13,14,14,14,14,15,15,15,15,15,16,16,16,16,18,19,19,20];
unsucc = [3,4,5,6,8,9,10,12,4,5,7,10,11,13,14,16,17,6,7,8,9,11,17,6,7,8,9,11,12,15,17,7,10,11,13,14,16,17,18,20,8,9,10,12,14,17,19,10,11,13,14,15,16,17,18,20,10,11,12,13,14,15,16,17,18,20,21,11,12,13,14,15,16,17,18,19,21,12,14,16,17,19,13,14,15,16,17,18,19,20,14,15,16,17,19,15,17,18,21,16,17,18,19,20,17,18,19,21,19,20,21,21];

USEFUL_RES = [{},
	{2,3,6,7,8,9,10,11,13},
	{3,6,7,8,9,10,11,13},
	{1,2,3,4,5,6,7,8,9,10,11,12},
	{1,2,3,4,5,6,7,8,9,10,11,12},
	{3,6,7,8,9,10,11,13},
	{2,3,8,9,10,11},
	{1,2,3,4,5,6,7,8,9,10,11,12},
	{1,2,3,4,5,6,7,8,9,10,11,12},
	{1,2,3,4,5,6,7,8,9,10,11,12,13},
	{2,3,6,7,8,9,10,11,13},
	{3,6,7,8,9,10,11,13},
	{2,3,6,7,8,9,10,11,13},
	{3,6,7,8,9,10,11,13},
	{1,2,3,4,5,6,7,8,9,10,11,12,13},
	{1,2,3,4,5,6,7,8,9,10,11,12,13},
	{1,2,3,4,5,6,7,8,9,10,11,12,13},
	{2,3,6,7,8,9,10,11,13},
	{1,2,3,4,5,6,7,8,9,10,11,12},
	{1,2,3,4,5,6,7,8,9,10,11,12},
	{3,6,7,8,9,10,11,13},
	{}];

POTENTIAL_ACT = [{4,5,8,9,10,15,16,17,19,20},
	{2,4,5,7,8,9,10,11,13,15,16,17,18,19,20},
	{2,3,4,5,6,7,8,9,10,11,12,13,14,15,16,17,18,19,20,21},
	{4,5,8,9,10,15,16,17,19,20},
	{4,5,8,9,10,15,16,17,19,20},
	{2,3,4,5,6,8,9,10,11,12,13,14,15,16,17,18,19,20,21},
	{2,3,4,5,6,8,9,10,11,12,13,14,15,16,17,18,19,20,21},
	{2,3,4,5,6,7,8,9,10,11,12,13,14,15,16,17,18,19,20,21},
	{2,3,4,5,6,7,8,9,10,11,12,13,14,15,16,17,18,19,20,21},
	{2,3,4,5,6,7,8,9,10,11,12,13,14,15,16,17,18,19,20,21},
	{2,3,4,5,6,7,8,9,10,11,12,13,14,15,16,17,18,19,20,21},
	{4,5,8,9,10,15,16,17,19,20},
	{2,3,6,10,11,12,13,14,15,16,17,18,21}];
